; benchmark generated from python API
(set-info :status unknown)
(declare-fun strlen_154_64 () (_ BitVec 64))
(declare-fun args_0_8 () (_ BitVec 8))
(declare-fun strlen_78_64 () (_ BitVec 64))
(declare-fun strncmp_ret_79_32 () (_ BitVec 32))
(declare-fun strlen_166_64 () (_ BitVec 64))
(declare-fun args_1_8 () (_ BitVec 8))
(declare-fun strlen_81_64 () (_ BitVec 64))
(declare-fun strncmp_ret_82_32 () (_ BitVec 32))
(declare-fun strlen_182_64 () (_ BitVec 64))
(declare-fun args_2_8 () (_ BitVec 8))
(declare-fun strlen_84_64 () (_ BitVec 64))
(declare-fun strncmp_ret_85_32 () (_ BitVec 32))
(declare-fun strlen_202_64 () (_ BitVec 64))
(declare-fun args_3_8 () (_ BitVec 8))
(declare-fun strlen_87_64 () (_ BitVec 64))
(declare-fun strncmp_ret_88_32 () (_ BitVec 32))
(declare-fun strlen_226_64 () (_ BitVec 64))
(declare-fun args_4_8 () (_ BitVec 8))
(declare-fun strlen_90_64 () (_ BitVec 64))
(declare-fun strncmp_ret_91_32 () (_ BitVec 32))
(declare-fun strlen_250_64 () (_ BitVec 64))
(declare-fun args_5_16 () (_ BitVec 16))
(declare-fun strlen_93_64 () (_ BitVec 64))
(declare-fun strncmp_ret_94_32 () (_ BitVec 32))
(declare-fun strlen_99_64 () (_ BitVec 64))
(declare-fun args_6_16 () (_ BitVec 16))
(declare-fun strncmp_ret_100_32 () (_ BitVec 32))
(declare-fun args_7_16 () (_ BitVec 16))
(declare-fun num_bytes_103_64 () (_ BitVec 64))
(declare-fun num_bytes_102_64 () (_ BitVec 64))
(declare-fun num_bytes_101_64 () (_ BitVec 64))
(declare-fun strncmp_ret_155_32 () (_ BitVec 32))
(declare-fun strncmp_ret_167_32 () (_ BitVec 32))
(declare-fun strncmp_ret_183_32 () (_ BitVec 32))
(declare-fun strncmp_ret_203_32 () (_ BitVec 32))
(declare-fun strncmp_ret_227_32 () (_ BitVec 32))
(declare-fun strncmp_ret_251_32 () (_ BitVec 32))
(declare-fun strlen_278_64 () (_ BitVec 64))
(declare-fun args_8_16 () (_ BitVec 16))
(declare-fun strncmp_ret_279_32 () (_ BitVec 32))
(declare-fun strlen_308_64 () (_ BitVec 64))
(declare-fun args_9_16 () (_ BitVec 16))
(declare-fun strncmp_ret_309_32 () (_ BitVec 32))
(declare-fun strlen_338_64 () (_ BitVec 64))
(declare-fun args_10_32 () (_ BitVec 32))
(declare-fun strncmp_ret_339_32 () (_ BitVec 32))
(declare-fun strlen_368_64 () (_ BitVec 64))
(declare-fun args_11_32 () (_ BitVec 32))
(declare-fun strncmp_ret_369_32 () (_ BitVec 32))
(declare-fun strlen_398_64 () (_ BitVec 64))
(declare-fun args_12_32 () (_ BitVec 32))
(declare-fun strncmp_ret_399_32 () (_ BitVec 32))
(declare-fun strlen_428_64 () (_ BitVec 64))
(declare-fun args_13_32 () (_ BitVec 32))
(declare-fun strncmp_ret_429_32 () (_ BitVec 32))
(declare-fun strlen_458_64 () (_ BitVec 64))
(declare-fun args_14_32 () (_ BitVec 32))
(declare-fun strncmp_ret_459_32 () (_ BitVec 32))
(declare-fun strlen_488_64 () (_ BitVec 64))
(declare-fun args_15_64 () (_ BitVec 64))
(declare-fun strncmp_ret_489_32 () (_ BitVec 32))
(declare-fun strlen_518_64 () (_ BitVec 64))
(declare-fun args_16_64 () (_ BitVec 64))
(declare-fun strncmp_ret_519_32 () (_ BitVec 32))
(declare-fun strncmp_ret_549_32 () (_ BitVec 32))
(declare-fun strlen_548_64 () (_ BitVec 64))
(declare-fun args_17_64 () (_ BitVec 64))
(declare-fun strlen_586_64 () (_ BitVec 64))
(declare-fun args_18_64 () (_ BitVec 64))
(declare-fun strncmp_ret_587_32 () (_ BitVec 32))
(assert
 (let ((?x9272 (bvadd (_ bv576460752303357824 64) strlen_154_64)))
 (let (($x69 (= (_ bv0 8) args_0_8)))
 (let ((?x46 (ite $x69 (_ bv576460752303357824 64) (_ bv576460752303357825 64))))
 (= ?x46 ?x9272)))))
(assert
 (let ((?x101 (bvadd (_ bv576460752303357824 64) strlen_78_64)))
 (let (($x69 (= (_ bv0 8) args_0_8)))
 (let ((?x46 (ite $x69 (_ bv576460752303357824 64) (_ bv576460752303357825 64))))
 (= ?x46 ?x101)))))
(assert
 (let (($x104 (bvule (_ bv2 64) strlen_78_64)))
 (let (($x48 (= (_ bv2 64) strlen_78_64)))
 (let (($x175 (or $x48 $x104)))
 (let (($x176 (not $x175)))
 (let (($x57 (= (_ bv45 8) args_0_8)))
 (let (($x174 (not $x57)))
 (or $x174 $x176))))))))
(assert
 (= (_ bv1 32) strncmp_ret_79_32))
(assert
 (let ((?x10517 (bvadd (_ bv576460752303357826 64) strlen_166_64)))
 (let (($x121 (= (_ bv0 8) args_1_8)))
 (let ((?x123 (ite $x121 (_ bv576460752303357826 64) (_ bv576460752303357827 64))))
 (= ?x123 ?x10517)))))
(assert
 (let ((?x158 (bvadd (_ bv576460752303357826 64) strlen_81_64)))
 (let (($x121 (= (_ bv0 8) args_1_8)))
 (let ((?x123 (ite $x121 (_ bv576460752303357826 64) (_ bv576460752303357827 64))))
 (= ?x123 ?x158)))))
(assert
 (let (($x161 (bvule (_ bv2 64) strlen_81_64)))
 (let (($x136 (= (_ bv2 64) strlen_81_64)))
 (let (($x129 (or $x136 $x161)))
 (let (($x130 (not $x129)))
 (let (($x142 (= (_ bv45 8) args_1_8)))
 (let (($x204 (not $x142)))
 (or $x204 $x130))))))))
(assert
 (= (_ bv1 32) strncmp_ret_82_32))
(assert
 (let ((?x12829 (bvadd (_ bv576460752303357828 64) strlen_182_64)))
 (let (($x191 (= (_ bv0 8) args_2_8)))
 (let ((?x189 (ite $x191 (_ bv576460752303357828 64) (_ bv576460752303357829 64))))
 (= ?x189 ?x12829)))))
(assert
 (let ((?x764 (bvadd (_ bv576460752303357828 64) strlen_84_64)))
 (let (($x191 (= (_ bv0 8) args_2_8)))
 (let ((?x189 (ite $x191 (_ bv576460752303357828 64) (_ bv576460752303357829 64))))
 (= ?x189 ?x764)))))
(assert
 (let (($x767 (bvule (_ bv2 64) strlen_84_64)))
 (let (($x746 (= (_ bv2 64) strlen_84_64)))
 (let (($x169 (or $x746 $x767)))
 (let (($x167 (not $x169)))
 (let (($x747 (= (_ bv45 8) args_2_8)))
 (let (($x131 (not $x747)))
 (or $x131 $x167))))))))
(assert
 (= (_ bv1 32) strncmp_ret_85_32))
(assert
 (let ((?x13580 (bvadd (_ bv576460752303357830 64) strlen_202_64)))
 (let (($x96 (= (_ bv0 8) args_3_8)))
 (let ((?x157 (ite $x96 (_ bv576460752303357830 64) (_ bv576460752303357831 64))))
 (= ?x157 ?x13580)))))
(assert
 (let ((?x616 (bvadd (_ bv576460752303357830 64) strlen_87_64)))
 (let (($x96 (= (_ bv0 8) args_3_8)))
 (let ((?x157 (ite $x96 (_ bv576460752303357830 64) (_ bv576460752303357831 64))))
 (= ?x157 ?x616)))))
(assert
 (let (($x281 (bvule (_ bv2 64) strlen_87_64)))
 (let (($x165 (= (_ bv2 64) strlen_87_64)))
 (let (($x234 (or $x165 $x281)))
 (let (($x233 (not $x234)))
 (let (($x134 (= (_ bv45 8) args_3_8)))
 (let (($x561 (not $x134)))
 (or $x561 $x233))))))))
(assert
 (= (_ bv1 32) strncmp_ret_88_32))
(assert
 (let ((?x15254 (bvadd (_ bv576460752303357832 64) strlen_226_64)))
 (let (($x268 (= (_ bv0 8) args_4_8)))
 (let ((?x342 (ite $x268 (_ bv576460752303357832 64) (_ bv576460752303357833 64))))
 (= ?x342 ?x15254)))))
(assert
 (let ((?x729 (bvadd (_ bv576460752303357832 64) strlen_90_64)))
 (let (($x268 (= (_ bv0 8) args_4_8)))
 (let ((?x342 (ite $x268 (_ bv576460752303357832 64) (_ bv576460752303357833 64))))
 (= ?x342 ?x729)))))
(assert
 (let (($x97 (bvule (_ bv2 64) strlen_90_64)))
 (let (($x609 (= (_ bv2 64) strlen_90_64)))
 (let (($x815 (or $x609 $x97)))
 (let (($x852 (not $x815)))
 (let (($x357 (= (_ bv45 8) args_4_8)))
 (let (($x812 (not $x357)))
 (or $x812 $x852))))))))
(assert
 (= (_ bv1 32) strncmp_ret_91_32))
(assert
 (let ((?x16482 (bvadd (_ bv576460752303357834 64) strlen_250_64)))
 (let ((?x273 ((_ extract 7 0) args_5_16)))
 (let (($x258 (= (_ bv0 8) ?x273)))
 (let ((?x446 (ite $x258 (_ bv576460752303357835 64) (_ bv576460752303357836 64))))
 (let ((?x242 ((_ extract 15 8) args_5_16)))
 (let (($x322 (= (_ bv0 8) ?x242)))
 (let ((?x414 (ite $x322 (_ bv576460752303357834 64) ?x446)))
 (= ?x414 ?x16482)))))))))
(assert
 (let ((?x589 (bvadd (_ bv576460752303357834 64) strlen_93_64)))
 (let ((?x273 ((_ extract 7 0) args_5_16)))
 (let (($x258 (= (_ bv0 8) ?x273)))
 (let ((?x446 (ite $x258 (_ bv576460752303357835 64) (_ bv576460752303357836 64))))
 (let ((?x242 ((_ extract 15 8) args_5_16)))
 (let (($x322 (= (_ bv0 8) ?x242)))
 (let ((?x414 (ite $x322 (_ bv576460752303357834 64) ?x446)))
 (= ?x414 ?x589)))))))))
(assert
 (let (($x619 (bvule (_ bv2 64) strlen_93_64)))
 (let (($x221 (= (_ bv2 64) strlen_93_64)))
 (let (($x1182 (or $x221 $x619)))
 (let (($x1181 (not $x1182)))
 (let ((?x242 ((_ extract 15 8) args_5_16)))
 (let (($x571 (= (_ bv45 8) ?x242)))
 (let (($x1183 (not $x571)))
 (let (($x600 (bvule (_ bv1 64) strlen_93_64)))
 (let (($x614 (not $x600)))
 (let ((?x273 ((_ extract 7 0) args_5_16)))
 (let (($x455 (= (_ bv105 8) ?x273)))
 (let (($x366 (or $x455 $x614)))
 (let (($x1192 (not $x366)))
 (or $x1192 $x1183 $x1181)))))))))))))))
(assert
 (let (($x16481 (bvule (_ bv6 64) strlen_250_64)))
 (let (($x4153 (= (_ bv6 64) strlen_250_64)))
 (let (($x15574 (or $x4153 $x16481)))
 (let (($x15577 (not $x15574)))
 (let ((?x242 ((_ extract 15 8) args_5_16)))
 (let (($x571 (= (_ bv45 8) ?x242)))
 (let (($x1183 (not $x571)))
 (let (($x16492 (bvule (_ bv1 64) strlen_250_64)))
 (let (($x15259 (not $x16492)))
 (let ((?x273 ((_ extract 7 0) args_5_16)))
 (let (($x11056 (= (_ bv110 8) ?x273)))
 (let (($x15572 (or $x11056 $x15259)))
 (let (($x15573 (not $x15572)))
 (or $x15573 $x1183 $x15577)))))))))))))))
(assert
 (= (_ bv1 32) strncmp_ret_94_32))
(assert
 (let ((?x702 (bvadd (_ bv576460752303357837 64) strlen_99_64)))
 (let ((?x779 ((_ extract 7 0) args_6_16)))
 (let (($x1191 (= (_ bv0 8) ?x779)))
 (let ((?x1221 (ite $x1191 (_ bv576460752303357838 64) (_ bv576460752303357839 64))))
 (= ?x1221 ?x702))))))
(assert
 (let ((?x182 ((_ extract 15 8) args_6_16)))
 (= (_ bv45 8) ?x182)))
(assert
 (let (($x278 (bvule (_ bv2 64) strlen_99_64)))
 (let (($x1226 (= (_ bv2 64) strlen_99_64)))
 (or $x1226 $x278))))
(assert
 (let (($x708 (bvule (_ bv1 64) strlen_99_64)))
 (let (($x709 (not $x708)))
 (let ((?x779 ((_ extract 7 0) args_6_16)))
 (let (($x1231 (= (_ bv105 8) ?x779)))
 (or $x1231 $x709))))))
(assert
 (= (_ bv0 32) strncmp_ret_100_32))
(assert
 (let ((?x1292 ((_ extract 15 14) args_7_16)))
 (let (($x25540 (= (_ bv0 2) ?x1292)))
 (let (($x25502 (not $x25540)))
 (let ((?x1387 ((_ extract 15 8) args_7_16)))
 (let (($x1302 (bvule (_ bv48 8) ?x1387)))
 (let (($x1194 (not $x1302)))
 (let ((?x1006 ((_ extract 13 8) args_7_16)))
 (let (($x1293 (bvule ?x1006 (_ bv57 6))))
 (let (($x352 (not $x1293)))
 (let (($x25511 (or $x352 $x1194 $x25502)))
 (let (($x1395 (= (_ bv1 64) num_bytes_103_64)))
 (let (($x26023 (not $x1395)))
 (let ((?x1538 ((_ extract 7 6) args_7_16)))
 (let (($x1366 (= (_ bv0 2) ?x1538)))
 (let (($x26153 (not $x1366)))
 (let ((?x1558 ((_ extract 7 0) args_7_16)))
 (let (($x1535 (bvule (_ bv48 8) ?x1558)))
 (let (($x293 (not $x1535)))
 (let ((?x1111 ((_ extract 5 0) args_7_16)))
 (let (($x1073 (bvule ?x1111 (_ bv57 6))))
 (let (($x587 (not $x1073)))
 (let (($x25541 (or $x587 $x293 $x26153)))
 (let (($x24495 (not $x25541)))
 (let (($x25559 (or $x24495 $x26023 $x25511)))
 (let (($x25514 (not $x25559)))
 (let (($x1870 (not $x25511)))
 (let (($x1492 (= (_ bv0 64) num_bytes_103_64)))
 (let (($x25523 (not $x1492)))
 (let (($x24446 (or $x25523 $x1870)))
 (let (($x25542 (not $x24446)))
 (let (($x1121 (= (_ bv2 64) num_bytes_103_64)))
 (let (($x9075 (not $x1121)))
 (let (($x25500 (or $x9075 $x25541 $x25511)))
 (let (($x26028 (not $x25500)))
 (or $x26028 $x25542 $x25514))))))))))))))))))))))))))))))))))))
(assert
 (let (($x1109 (= (_ bv0 64) num_bytes_102_64)))
 (let (($x12995 (not $x1109)))
 (let (($x1375 (= (_ bv1 64) num_bytes_102_64)))
 (let (($x1515 (not $x1375)))
 (let ((?x1538 ((_ extract 7 6) args_7_16)))
 (let (($x1366 (= (_ bv0 2) ?x1538)))
 (let (($x26153 (not $x1366)))
 (let ((?x1558 ((_ extract 7 0) args_7_16)))
 (let (($x1535 (bvule (_ bv48 8) ?x1558)))
 (let (($x293 (not $x1535)))
 (let ((?x1111 ((_ extract 5 0) args_7_16)))
 (let (($x1073 (bvule ?x1111 (_ bv57 6))))
 (let (($x587 (not $x1073)))
 (let (($x25541 (or $x587 $x293 $x26153)))
 (let (($x24495 (not $x25541)))
 (let (($x23840 (ite $x24495 $x1515 $x12995)))
 (not $x23840))))))))))))))))))
(assert
 (let (($x1555 (= (_ bv0 64) num_bytes_101_64)))
 (let (($x25558 (not $x1555)))
 (let (($x1388 (= (_ bv1 64) num_bytes_101_64)))
 (let (($x1370 (not $x1388)))
 (let ((?x1538 ((_ extract 7 6) args_7_16)))
 (let (($x1366 (= (_ bv0 2) ?x1538)))
 (let (($x26153 (not $x1366)))
 (let ((?x1558 ((_ extract 7 0) args_7_16)))
 (let (($x1535 (bvule (_ bv48 8) ?x1558)))
 (let (($x293 (not $x1535)))
 (let ((?x1111 ((_ extract 5 0) args_7_16)))
 (let (($x1073 (bvule ?x1111 (_ bv57 6))))
 (let (($x587 (not $x1073)))
 (let (($x25541 (or $x587 $x293 $x26153)))
 (let (($x24495 (not $x25541)))
 (let (($x15680 (ite $x24495 $x1370 $x25558)))
 (not $x15680))))))))))))))))))
(assert
 (= (_ bv1 32) strncmp_ret_155_32))
(assert
 (= (_ bv1 32) strncmp_ret_167_32))
(assert
 (= (_ bv1 32) strncmp_ret_183_32))
(assert
 (= (_ bv1 32) strncmp_ret_203_32))
(assert
 (= (_ bv1 32) strncmp_ret_227_32))
(assert
 (= (_ bv1 32) strncmp_ret_251_32))
(assert
 (let ((?x15544 (bvadd (_ bv576460752303357843 64) strlen_278_64)))
 (let ((?x1852 ((_ extract 7 0) args_8_16)))
 (let (($x2370 (= (_ bv0 8) ?x1852)))
 (let ((?x2404 (ite $x2370 (_ bv576460752303357844 64) (_ bv576460752303357845 64))))
 (let ((?x2032 ((_ extract 15 8) args_8_16)))
 (let (($x1997 (= (_ bv0 8) ?x2032)))
 (let ((?x2405 (ite $x1997 (_ bv576460752303357843 64) ?x2404)))
 (= ?x2405 ?x15544)))))))))
(assert
 (let (($x15549 (bvule (_ bv6 64) strlen_278_64)))
 (let (($x15514 (= (_ bv6 64) strlen_278_64)))
 (let (($x15895 (or $x15514 $x15549)))
 (let (($x16157 (not $x15895)))
 (let ((?x2032 ((_ extract 15 8) args_8_16)))
 (let (($x1851 (= (_ bv45 8) ?x2032)))
 (let (($x3119 (not $x1851)))
 (let (($x15555 (bvule (_ bv1 64) strlen_278_64)))
 (let (($x15556 (not $x15555)))
 (let ((?x1852 ((_ extract 7 0) args_8_16)))
 (let (($x14809 (= (_ bv110 8) ?x1852)))
 (let (($x16592 (or $x14809 $x15556)))
 (let (($x15560 (not $x16592)))
 (or $x15560 $x3119 $x16157)))))))))))))))
(assert
 (= (_ bv1 32) strncmp_ret_279_32))
(assert
 (let ((?x463 (bvadd (_ bv576460752303357846 64) strlen_308_64)))
 (let ((?x2852 ((_ extract 7 0) args_9_16)))
 (let (($x3129 (= (_ bv0 8) ?x2852)))
 (let ((?x3112 (ite $x3129 (_ bv576460752303357847 64) (_ bv576460752303357848 64))))
 (let ((?x2821 ((_ extract 15 8) args_9_16)))
 (let (($x3121 (= (_ bv0 8) ?x2821)))
 (let ((?x3111 (ite $x3121 (_ bv576460752303357846 64) ?x3112)))
 (= ?x3111 ?x463)))))))))
(assert
 (let (($x1098 (bvule (_ bv6 64) strlen_308_64)))
 (let (($x11285 (= (_ bv6 64) strlen_308_64)))
 (let (($x1516 (or $x11285 $x1098)))
 (let (($x7707 (not $x1516)))
 (let ((?x2821 ((_ extract 15 8) args_9_16)))
 (let (($x2847 (= (_ bv45 8) ?x2821)))
 (let (($x4009 (not $x2847)))
 (let ((?x2852 ((_ extract 7 0) args_9_16)))
 (let (($x11951 (= (_ bv110 8) ?x2852)))
 (let (($x1090 (bvule (_ bv1 64) strlen_308_64)))
 (let (($x591 (not $x1090)))
 (let (($x13747 (or $x591 $x11951)))
 (let (($x17692 (not $x13747)))
 (or $x17692 $x4009 $x7707)))))))))))))))
(assert
 (= (_ bv1 32) strncmp_ret_309_32))
(assert
 (let ((?x8449 (bvadd (_ bv576460752303357849 64) strlen_338_64)))
 (let ((?x3092 ((_ extract 7 0) args_10_32)))
 (let (($x3393 (= (_ bv0 8) ?x3092)))
 (let ((?x3961 (ite $x3393 (_ bv576460752303357852 64) (_ bv576460752303357853 64))))
 (let ((?x3366 ((_ extract 15 8) args_10_32)))
 (let (($x3331 (= (_ bv0 8) ?x3366)))
 (let ((?x3960 (ite $x3331 (_ bv576460752303357851 64) ?x3961)))
 (let ((?x3358 ((_ extract 23 16) args_10_32)))
 (let (($x3984 (= (_ bv0 8) ?x3358)))
 (let ((?x3959 (ite $x3984 (_ bv576460752303357850 64) ?x3960)))
 (let ((?x3316 ((_ extract 31 24) args_10_32)))
 (let (($x3318 (= (_ bv0 8) ?x3316)))
 (let ((?x3958 (ite $x3318 (_ bv576460752303357849 64) ?x3959)))
 (= ?x3958 ?x8449)))))))))))))))
(assert
 (let (($x8223 (bvule (_ bv6 64) strlen_338_64)))
 (let (($x8424 (= (_ bv6 64) strlen_338_64)))
 (let (($x8812 (or $x8424 $x8223)))
 (let (($x8824 (not $x8812)))
 (let ((?x3316 ((_ extract 31 24) args_10_32)))
 (let (($x3302 (= (_ bv45 8) ?x3316)))
 (let (($x4328 (not $x3302)))
 (let ((?x3358 ((_ extract 23 16) args_10_32)))
 (let (($x15980 (= (_ bv110 8) ?x3358)))
 (let (($x1404 (bvule (_ bv1 64) strlen_338_64)))
 (let (($x8253 (not $x1404)))
 (let (($x8848 (or $x8253 $x15980)))
 (let (($x8830 (not $x8848)))
 (let ((?x3366 ((_ extract 15 8) args_10_32)))
 (let (($x17007 (= (_ bv111 8) ?x3366)))
 (let (($x8537 (bvule (_ bv2 64) strlen_338_64)))
 (let (($x1488 (not $x8537)))
 (let (($x8860 (or $x1488 $x17007)))
 (let (($x8866 (not $x8860)))
 (let ((?x3092 ((_ extract 7 0) args_10_32)))
 (let (($x17150 (= (_ bv103 8) ?x3092)))
 (let (($x8477 (bvule (_ bv3 64) strlen_338_64)))
 (let (($x8296 (not $x8477)))
 (let (($x801 (or $x8296 $x17150)))
 (let (($x8854 (not $x801)))
 (or $x8854 $x8866 $x8830 $x4328 $x8824)))))))))))))))))))))))))))
(assert
 (= (_ bv1 32) strncmp_ret_339_32))
(assert
 (let ((?x7652 (bvadd (_ bv576460752303357854 64) strlen_368_64)))
 (let ((?x4132 ((_ extract 7 0) args_11_32)))
 (let (($x3889 (= (_ bv0 8) ?x4132)))
 (let ((?x1118 (ite $x3889 (_ bv576460752303357857 64) (_ bv576460752303357858 64))))
 (let ((?x4320 ((_ extract 15 8) args_11_32)))
 (let (($x4329 (= (_ bv0 8) ?x4320)))
 (let ((?x2993 (ite $x4329 (_ bv576460752303357856 64) ?x1118)))
 (let ((?x3930 ((_ extract 23 16) args_11_32)))
 (let (($x4473 (= (_ bv0 8) ?x3930)))
 (let ((?x2992 (ite $x4473 (_ bv576460752303357855 64) ?x2993)))
 (let ((?x3738 ((_ extract 31 24) args_11_32)))
 (let (($x3872 (= (_ bv0 8) ?x3738)))
 (let ((?x3164 (ite $x3872 (_ bv576460752303357854 64) ?x2992)))
 (= ?x3164 ?x7652)))))))))))))))
(assert
 (let (($x6759 (bvule (_ bv6 64) strlen_368_64)))
 (let (($x12752 (= (_ bv6 64) strlen_368_64)))
 (let (($x10051 (or $x12752 $x6759)))
 (let (($x10870 (not $x10051)))
 (let ((?x3738 ((_ extract 31 24) args_11_32)))
 (let (($x3860 (= (_ bv45 8) ?x3738)))
 (let (($x5387 (not $x3860)))
 (let ((?x3930 ((_ extract 23 16) args_11_32)))
 (let (($x16214 (= (_ bv110 8) ?x3930)))
 (let (($x13047 (bvule (_ bv1 64) strlen_368_64)))
 (let (($x13214 (not $x13047)))
 (let (($x10334 (or $x13214 $x16214)))
 (let (($x11038 (not $x10334)))
 (let ((?x4320 ((_ extract 15 8) args_11_32)))
 (let (($x16424 (= (_ bv111 8) ?x4320)))
 (let (($x13798 (bvule (_ bv2 64) strlen_368_64)))
 (let (($x13973 (not $x13798)))
 (let (($x11353 (or $x13973 $x16424)))
 (let (($x11459 (not $x11353)))
 (let ((?x4132 ((_ extract 7 0) args_11_32)))
 (let (($x2950 (= (_ bv103 8) ?x4132)))
 (let (($x545 (bvule (_ bv3 64) strlen_368_64)))
 (let (($x846 (not $x545)))
 (let (($x10031 (or $x846 $x2950)))
 (let (($x11058 (not $x10031)))
 (or $x11058 $x11459 $x11038 $x5387 $x10870)))))))))))))))))))))))))))
(assert
 (= (_ bv1 32) strncmp_ret_369_32))
(assert
 (let ((?x11313 (bvadd (_ bv576460752303357859 64) strlen_398_64)))
 (let ((?x4643 ((_ extract 7 0) args_12_32)))
 (let (($x4664 (= (_ bv0 8) ?x4643)))
 (let ((?x4502 (ite $x4664 (_ bv576460752303357862 64) (_ bv576460752303357863 64))))
 (let ((?x4615 ((_ extract 15 8) args_12_32)))
 (let (($x5052 (= (_ bv0 8) ?x4615)))
 (let ((?x5315 (ite $x5052 (_ bv576460752303357861 64) ?x4502)))
 (let ((?x4639 ((_ extract 23 16) args_12_32)))
 (let (($x5295 (= (_ bv0 8) ?x4639)))
 (let ((?x5054 (ite $x5295 (_ bv576460752303357860 64) ?x5315)))
 (let ((?x4500 ((_ extract 31 24) args_12_32)))
 (let (($x4659 (= (_ bv0 8) ?x4500)))
 (let ((?x5316 (ite $x4659 (_ bv576460752303357859 64) ?x5054)))
 (= ?x5316 ?x11313)))))))))))))))
(assert
 (let (($x10013 (bvule (_ bv6 64) strlen_398_64)))
 (let (($x19098 (= (_ bv6 64) strlen_398_64)))
 (let (($x12835 (or $x19098 $x10013)))
 (let (($x12453 (not $x12835)))
 (let ((?x4500 ((_ extract 31 24) args_12_32)))
 (let (($x4877 (= (_ bv45 8) ?x4500)))
 (let (($x5808 (not $x4877)))
 (let (($x10852 (bvule (_ bv1 64) strlen_398_64)))
 (let (($x10818 (not $x10852)))
 (let ((?x4639 ((_ extract 23 16) args_12_32)))
 (let (($x8200 (= (_ bv110 8) ?x4639)))
 (let (($x12841 (or $x8200 $x10818)))
 (let (($x12762 (not $x12841)))
 (let (($x11093 (bvule (_ bv2 64) strlen_398_64)))
 (let (($x10461 (not $x11093)))
 (let ((?x4615 ((_ extract 15 8) args_12_32)))
 (let (($x9540 (= (_ bv111 8) ?x4615)))
 (let (($x12772 (or $x9540 $x10461)))
 (let (($x13065 (not $x12772)))
 (let (($x9515 (bvule (_ bv3 64) strlen_398_64)))
 (let (($x10057 (not $x9515)))
 (let ((?x4643 ((_ extract 7 0) args_12_32)))
 (let (($x7486 (= (_ bv103 8) ?x4643)))
 (let (($x12713 (or $x7486 $x10057)))
 (let (($x12737 (not $x12713)))
 (or $x12737 $x13065 $x12762 $x5808 $x12453)))))))))))))))))))))))))))
(assert
 (= (_ bv1 32) strncmp_ret_399_32))
(assert
 (let ((?x12811 (bvadd (_ bv576460752303357864 64) strlen_428_64)))
 (let ((?x5193 ((_ extract 7 0) args_13_32)))
 (let (($x5810 (= (_ bv0 8) ?x5193)))
 (let ((?x5941 (ite $x5810 (_ bv576460752303357867 64) (_ bv576460752303357868 64))))
 (let ((?x5752 ((_ extract 15 8) args_13_32)))
 (let (($x5809 (= (_ bv0 8) ?x5752)))
 (let ((?x5940 (ite $x5809 (_ bv576460752303357866 64) ?x5941)))
 (let ((?x5879 ((_ extract 23 16) args_13_32)))
 (let (($x5976 (= (_ bv0 8) ?x5879)))
 (let ((?x5939 (ite $x5976 (_ bv576460752303357865 64) ?x5940)))
 (let ((?x5380 ((_ extract 31 24) args_13_32)))
 (let (($x5374 (= (_ bv0 8) ?x5380)))
 (let ((?x5938 (ite $x5374 (_ bv576460752303357864 64) ?x5939)))
 (= ?x5938 ?x12811)))))))))))))))
(assert
 (let (($x3826 (bvule (_ bv6 64) strlen_428_64)))
 (let (($x6167 (= (_ bv6 64) strlen_428_64)))
 (let (($x13455 (or $x6167 $x3826)))
 (let (($x17609 (not $x13455)))
 (let ((?x5380 ((_ extract 31 24) args_13_32)))
 (let (($x5591 (= (_ bv45 8) ?x5380)))
 (let (($x6417 (not $x5591)))
 (let ((?x5879 ((_ extract 23 16) args_13_32)))
 (let (($x18746 (= (_ bv110 8) ?x5879)))
 (let (($x12845 (bvule (_ bv1 64) strlen_428_64)))
 (let (($x13139 (not $x12845)))
 (let (($x13475 (or $x13139 $x18746)))
 (let (($x7329 (not $x13475)))
 (let ((?x5752 ((_ extract 15 8) args_13_32)))
 (let (($x18515 (= (_ bv111 8) ?x5752)))
 (let (($x12736 (bvule (_ bv2 64) strlen_428_64)))
 (let (($x12817 (not $x12736)))
 (let (($x19969 (or $x12817 $x18515)))
 (let (($x20240 (not $x19969)))
 (let (($x12597 (bvule (_ bv3 64) strlen_428_64)))
 (let (($x12596 (not $x12597)))
 (let ((?x5193 ((_ extract 7 0) args_13_32)))
 (let (($x15745 (= (_ bv103 8) ?x5193)))
 (let (($x19132 (or $x15745 $x12596)))
 (let (($x13482 (not $x19132)))
 (or $x13482 $x20240 $x7329 $x6417 $x17609)))))))))))))))))))))))))))
(assert
 (= (_ bv1 32) strncmp_ret_429_32))
(assert
 (let ((?x20306 (bvadd (_ bv576460752303357869 64) strlen_458_64)))
 (let ((?x6356 ((_ extract 7 0) args_14_32)))
 (let (($x6416 (= (_ bv0 8) ?x6356)))
 (let ((?x6969 (ite $x6416 (_ bv576460752303357872 64) (_ bv576460752303357873 64))))
 (let ((?x6433 ((_ extract 15 8) args_14_32)))
 (let (($x6523 (= (_ bv0 8) ?x6433)))
 (let ((?x6966 (ite $x6523 (_ bv576460752303357871 64) ?x6969)))
 (let ((?x5337 ((_ extract 23 16) args_14_32)))
 (let (($x6994 (= (_ bv0 8) ?x5337)))
 (let ((?x6965 (ite $x6994 (_ bv576460752303357870 64) ?x6966)))
 (let ((?x6270 ((_ extract 31 24) args_14_32)))
 (let (($x5985 (= (_ bv0 8) ?x6270)))
 (let ((?x6964 (ite $x5985 (_ bv576460752303357869 64) ?x6965)))
 (= ?x6964 ?x20306)))))))))))))))
(assert
 (let (($x6766 (bvule (_ bv6 64) strlen_458_64)))
 (let (($x13493 (= (_ bv6 64) strlen_458_64)))
 (let (($x14483 (or $x13493 $x6766)))
 (let (($x14432 (not $x14483)))
 (let ((?x6270 ((_ extract 31 24) args_14_32)))
 (let (($x5368 (= (_ bv45 8) ?x6270)))
 (let (($x8173 (not $x5368)))
 (let ((?x5337 ((_ extract 23 16) args_14_32)))
 (let (($x18031 (= (_ bv110 8) ?x5337)))
 (let (($x19972 (bvule (_ bv1 64) strlen_458_64)))
 (let (($x5230 (not $x19972)))
 (let (($x14848 (or $x5230 $x18031)))
 (let (($x15000 (not $x14848)))
 (let (($x11711 (bvule (_ bv2 64) strlen_458_64)))
 (let (($x20258 (not $x11711)))
 (let ((?x6433 ((_ extract 15 8) args_14_32)))
 (let (($x12019 (= (_ bv111 8) ?x6433)))
 (let (($x14697 (or $x12019 $x20258)))
 (let (($x14739 (not $x14697)))
 (let ((?x6356 ((_ extract 7 0) args_14_32)))
 (let (($x18906 (= (_ bv103 8) ?x6356)))
 (let (($x1050 (bvule (_ bv3 64) strlen_458_64)))
 (let (($x11447 (not $x1050)))
 (let (($x14650 (or $x11447 $x18906)))
 (let (($x14675 (not $x14650)))
 (or $x14675 $x14739 $x15000 $x8173 $x14432)))))))))))))))))))))))))))
(assert
 (= (_ bv1 32) strncmp_ret_459_32))
(assert
 (let ((?x14603 (bvadd (_ bv576460752303357874 64) strlen_488_64)))
 (let ((?x7178 ((_ extract 7 0) args_15_64)))
 (let (($x922 (= (_ bv0 8) ?x7178)))
 (let ((?x1100 (ite $x922 (_ bv576460752303357881 64) (_ bv576460752303357882 64))))
 (let ((?x7587 ((_ extract 15 8) args_15_64)))
 (let (($x8179 (= (_ bv0 8) ?x7587)))
 (let ((?x931 (ite $x8179 (_ bv576460752303357880 64) ?x1100)))
 (let ((?x6954 ((_ extract 23 16) args_15_64)))
 (let (($x8128 (= (_ bv0 8) ?x6954)))
 (let ((?x1267 (ite $x8128 (_ bv576460752303357879 64) ?x931)))
 (let ((?x7233 ((_ extract 31 24) args_15_64)))
 (let (($x8118 (= (_ bv0 8) ?x7233)))
 (let ((?x1716 (ite $x8118 (_ bv576460752303357878 64) ?x1267)))
 (let ((?x7510 ((_ extract 39 32) args_15_64)))
 (let (($x8099 (= (_ bv0 8) ?x7510)))
 (let ((?x1719 (ite $x8099 (_ bv576460752303357877 64) ?x1716)))
 (let ((?x6919 ((_ extract 47 40) args_15_64)))
 (let (($x8150 (= (_ bv0 8) ?x6919)))
 (let ((?x1712 (ite $x8150 (_ bv576460752303357876 64) ?x1719)))
 (let ((?x7152 ((_ extract 55 48) args_15_64)))
 (let (($x8149 (= (_ bv0 8) ?x7152)))
 (let ((?x1124 (ite $x8149 (_ bv576460752303357875 64) ?x1712)))
 (let ((?x7096 ((_ extract 63 56) args_15_64)))
 (let (($x7284 (= (_ bv0 8) ?x7096)))
 (let ((?x1107 (ite $x7284 (_ bv576460752303357874 64) ?x1124)))
 (= ?x1107 ?x14603)))))))))))))))))))))))))))
(assert
 (let ((?x7096 ((_ extract 63 56) args_15_64)))
 (let (($x7318 (= (_ bv45 8) ?x7096)))
 (let (($x2531 (not $x7318)))
 (let (($x18346 (= (_ bv6 64) strlen_488_64)))
 (let (($x21446 (not $x18346)))
 (let ((?x7152 ((_ extract 55 48) args_15_64)))
 (let (($x13051 (= (_ bv110 8) ?x7152)))
 (let (($x7035 (bvule (_ bv1 64) strlen_488_64)))
 (let (($x14558 (not $x7035)))
 (let (($x19255 (or $x14558 $x13051)))
 (let (($x10867 (not $x19255)))
 (let ((?x6919 ((_ extract 47 40) args_15_64)))
 (let (($x8117 (= (_ bv111 8) ?x6919)))
 (let (($x14817 (bvule (_ bv2 64) strlen_488_64)))
 (let (($x15582 (not $x14817)))
 (let (($x21790 (or $x15582 $x8117)))
 (let (($x20296 (not $x21790)))
 (let ((?x7510 ((_ extract 39 32) args_15_64)))
 (let (($x18743 (= (_ bv103 8) ?x7510)))
 (let (($x14395 (bvule (_ bv3 64) strlen_488_64)))
 (let (($x5371 (not $x14395)))
 (let (($x21999 (or $x5371 $x18743)))
 (let (($x10297 (not $x21999)))
 (let ((?x7233 ((_ extract 31 24) args_15_64)))
 (let (($x16517 (= (_ bv112 8) ?x7233)))
 (let (($x13019 (bvule (_ bv4 64) strlen_488_64)))
 (let (($x14867 (not $x13019)))
 (let (($x11369 (or $x14867 $x16517)))
 (let (($x22103 (not $x11369)))
 (let (($x14385 (bvule (_ bv5 64) strlen_488_64)))
 (let (($x13428 (not $x14385)))
 (let ((?x6954 ((_ extract 23 16) args_15_64)))
 (let (($x11460 (= (_ bv117 8) ?x6954)))
 (let (($x20040 (or $x11460 $x13428)))
 (let (($x19363 (not $x20040)))
 (or $x19363 $x22103 $x10297 $x20296 $x10867 $x21446 $x2531)))))))))))))))))))))))))))))))))))))
(assert
 (= (_ bv1 32) strncmp_ret_489_32))
(assert
 (let ((?x20732 (bvadd (_ bv576460752303357883 64) strlen_518_64)))
 (let ((?x1645 ((_ extract 7 0) args_16_64)))
 (let (($x2455 (= (_ bv0 8) ?x1645)))
 (let ((?x2164 (ite $x2455 (_ bv576460752303357890 64) (_ bv576460752303357891 64))))
 (let ((?x1452 ((_ extract 15 8) args_16_64)))
 (let (($x2232 (= (_ bv0 8) ?x1452)))
 (let ((?x9376 (ite $x2232 (_ bv576460752303357889 64) ?x2164)))
 (let ((?x2105 ((_ extract 23 16) args_16_64)))
 (let (($x3050 (= (_ bv0 8) ?x2105)))
 (let ((?x2885 (ite $x3050 (_ bv576460752303357888 64) ?x9376)))
 (let ((?x2015 ((_ extract 31 24) args_16_64)))
 (let (($x2681 (= (_ bv0 8) ?x2015)))
 (let ((?x9358 (ite $x2681 (_ bv576460752303357887 64) ?x2885)))
 (let ((?x2102 ((_ extract 39 32) args_16_64)))
 (let (($x9908 (= (_ bv0 8) ?x2102)))
 (let ((?x9624 (ite $x9908 (_ bv576460752303357886 64) ?x9358)))
 (let ((?x2108 ((_ extract 47 40) args_16_64)))
 (let (($x2947 (= (_ bv0 8) ?x2108)))
 (let ((?x2824 (ite $x2947 (_ bv576460752303357885 64) ?x9624)))
 (let ((?x2170 ((_ extract 55 48) args_16_64)))
 (let (($x9858 (= (_ bv0 8) ?x2170)))
 (let ((?x9549 (ite $x9858 (_ bv576460752303357884 64) ?x2824)))
 (let ((?x9051 ((_ extract 63 56) args_16_64)))
 (let (($x1168 (= (_ bv0 8) ?x9051)))
 (let ((?x2682 (ite $x1168 (_ bv576460752303357883 64) ?x9549)))
 (= ?x2682 ?x20732)))))))))))))))))))))))))))
(assert
 (let ((?x9051 ((_ extract 63 56) args_16_64)))
 (let (($x8549 (= (_ bv45 8) ?x9051)))
 (let (($x4060 (not $x8549)))
 (let (($x20708 (= (_ bv6 64) strlen_518_64)))
 (let (($x25662 (not $x20708)))
 (let (($x20813 (bvule (_ bv1 64) strlen_518_64)))
 (let (($x21758 (not $x20813)))
 (let ((?x2170 ((_ extract 55 48) args_16_64)))
 (let (($x14686 (= (_ bv110 8) ?x2170)))
 (let (($x25684 (or $x14686 $x21758)))
 (let (($x25657 (not $x25684)))
 (let ((?x2108 ((_ extract 47 40) args_16_64)))
 (let (($x17934 (= (_ bv111 8) ?x2108)))
 (let (($x20287 (bvule (_ bv2 64) strlen_518_64)))
 (let (($x8098 (not $x20287)))
 (let (($x25631 (or $x8098 $x17934)))
 (let (($x25619 (not $x25631)))
 (let (($x19251 (bvule (_ bv3 64) strlen_518_64)))
 (let (($x20921 (not $x19251)))
 (let ((?x2102 ((_ extract 39 32) args_16_64)))
 (let (($x19677 (= (_ bv103 8) ?x2102)))
 (let (($x17301 (or $x19677 $x20921)))
 (let (($x17218 (not $x17301)))
 (let (($x13270 (bvule (_ bv4 64) strlen_518_64)))
 (let (($x21418 (not $x13270)))
 (let ((?x2015 ((_ extract 31 24) args_16_64)))
 (let (($x20164 (= (_ bv112 8) ?x2015)))
 (let (($x19334 (or $x20164 $x21418)))
 (let (($x17771 (not $x19334)))
 (let (($x21951 (bvule (_ bv5 64) strlen_518_64)))
 (let (($x19114 (not $x21951)))
 (let ((?x2105 ((_ extract 23 16) args_16_64)))
 (let (($x15512 (= (_ bv117 8) ?x2105)))
 (let (($x8103 (or $x15512 $x19114)))
 (let (($x19554 (not $x8103)))
 (or $x19554 $x17771 $x17218 $x25619 $x25657 $x25662 $x4060)))))))))))))))))))))))))))))))))))))
(assert
 (= (_ bv1 32) strncmp_ret_519_32))
(assert
 (= (_ bv1 32) strncmp_ret_549_32))
(assert
 (let ((?x25726 (bvadd (_ bv576460752303357892 64) strlen_548_64)))
 (let ((?x3308 ((_ extract 7 0) args_17_64)))
 (let (($x11039 (= (_ bv0 8) ?x3308)))
 (let ((?x11084 (ite $x11039 (_ bv576460752303357899 64) (_ bv576460752303357900 64))))
 (let ((?x3453 ((_ extract 15 8) args_17_64)))
 (let (($x2526 (= (_ bv0 8) ?x3453)))
 (let ((?x11024 (ite $x2526 (_ bv576460752303357898 64) ?x11084)))
 (let ((?x10292 ((_ extract 23 16) args_17_64)))
 (let (($x3924 (= (_ bv0 8) ?x10292)))
 (let ((?x10514 (ite $x3924 (_ bv576460752303357897 64) ?x11024)))
 (let ((?x10073 ((_ extract 31 24) args_17_64)))
 (let (($x3886 (= (_ bv0 8) ?x10073)))
 (let ((?x3732 (ite $x3886 (_ bv576460752303357896 64) ?x10514)))
 (let ((?x10512 ((_ extract 39 32) args_17_64)))
 (let (($x10531 (= (_ bv0 8) ?x10512)))
 (let ((?x3894 (ite $x10531 (_ bv576460752303357895 64) ?x3732)))
 (let ((?x3490 ((_ extract 47 40) args_17_64)))
 (let (($x11025 (= (_ bv0 8) ?x3490)))
 (let ((?x1174 (ite $x11025 (_ bv576460752303357894 64) ?x3894)))
 (let ((?x3666 ((_ extract 55 48) args_17_64)))
 (let (($x3863 (= (_ bv0 8) ?x3666)))
 (let ((?x11042 (ite $x3863 (_ bv576460752303357893 64) ?x1174)))
 (let ((?x2965 ((_ extract 63 56) args_17_64)))
 (let (($x9613 (= (_ bv0 8) ?x2965)))
 (let ((?x3852 (ite $x9613 (_ bv576460752303357892 64) ?x11042)))
 (= ?x3852 ?x25726)))))))))))))))))))))))))))
(assert
 (let ((?x2965 ((_ extract 63 56) args_17_64)))
 (let (($x10621 (= (_ bv45 8) ?x2965)))
 (let (($x5823 (not $x10621)))
 (let (($x16765 (= (_ bv6 64) strlen_548_64)))
 (let (($x16934 (not $x16765)))
 (let (($x25685 (bvule (_ bv1 64) strlen_548_64)))
 (let (($x25686 (not $x25685)))
 (let ((?x3666 ((_ extract 55 48) args_17_64)))
 (let (($x24173 (= (_ bv110 8) ?x3666)))
 (let (($x20493 (or $x24173 $x25686)))
 (let (($x9377 (not $x20493)))
 (let (($x25636 (bvule (_ bv2 64) strlen_548_64)))
 (let (($x25693 (not $x25636)))
 (let ((?x3490 ((_ extract 47 40) args_17_64)))
 (let (($x24239 (= (_ bv111 8) ?x3490)))
 (let (($x11775 (or $x24239 $x25693)))
 (let (($x20313 (not $x11775)))
 (let (($x25637 (bvule (_ bv3 64) strlen_548_64)))
 (let (($x25727 (not $x25637)))
 (let ((?x10512 ((_ extract 39 32) args_17_64)))
 (let (($x24101 (= (_ bv103 8) ?x10512)))
 (let (($x11519 (or $x24101 $x25727)))
 (let (($x22818 (not $x11519)))
 (let (($x25648 (bvule (_ bv4 64) strlen_548_64)))
 (let (($x25660 (not $x25648)))
 (let ((?x10073 ((_ extract 31 24) args_17_64)))
 (let (($x16117 (= (_ bv112 8) ?x10073)))
 (let (($x26652 (or $x16117 $x25660)))
 (let (($x11530 (not $x26652)))
 (let (($x25620 (bvule (_ bv5 64) strlen_548_64)))
 (let (($x25632 (not $x25620)))
 (let ((?x10292 ((_ extract 23 16) args_17_64)))
 (let (($x15565 (= (_ bv117 8) ?x10292)))
 (let (($x26667 (or $x15565 $x25632)))
 (let (($x26672 (not $x26667)))
 (or $x26672 $x11530 $x22818 $x20313 $x9377 $x16934 $x5823)))))))))))))))))))))))))))))))))))))
(assert
 (let ((?x4748 ((_ extract 7 0) args_18_64)))
 (let (($x11831 (= (_ bv0 8) ?x4748)))
 (let ((?x5723 (ite $x11831 (_ bv576460752303357908 64) (_ bv576460752303357909 64))))
 (let ((?x4495 ((_ extract 15 8) args_18_64)))
 (let (($x5782 (= (_ bv0 8) ?x4495)))
 (let ((?x5568 (ite $x5782 (_ bv576460752303357907 64) ?x5723)))
 (let ((?x4746 ((_ extract 23 16) args_18_64)))
 (let (($x11870 (= (_ bv0 8) ?x4746)))
 (let ((?x5445 (ite $x11870 (_ bv576460752303357906 64) ?x5568)))
 (let ((?x4989 ((_ extract 31 24) args_18_64)))
 (let (($x11934 (= (_ bv0 8) ?x4989)))
 (let ((?x5350 (ite $x11934 (_ bv576460752303357905 64) ?x5445)))
 (let ((?x5036 ((_ extract 39 32) args_18_64)))
 (let (($x11945 (= (_ bv0 8) ?x5036)))
 (let ((?x5690 (ite $x11945 (_ bv576460752303357904 64) ?x5350)))
 (let ((?x4953 ((_ extract 47 40) args_18_64)))
 (let (($x4697 (= (_ bv0 8) ?x4953)))
 (let ((?x5563 (ite $x4697 (_ bv576460752303357903 64) ?x5690)))
 (let ((?x4667 ((_ extract 55 48) args_18_64)))
 (let (($x5048 (= (_ bv0 8) ?x4667)))
 (let ((?x5807 (ite $x5048 (_ bv576460752303357902 64) ?x5563)))
 (let ((?x4559 ((_ extract 63 56) args_18_64)))
 (let (($x10812 (= (_ bv0 8) ?x4559)))
 (let ((?x5355 (ite $x10812 (_ bv576460752303357901 64) ?x5807)))
 (let ((?x5518 (bvsub ?x5355 (_ bv576460752303357901 64))))
 (= ?x5518 strlen_586_64)))))))))))))))))))))))))))
(assert
 (let (($x21918 (= (_ bv1 32) strncmp_ret_587_32)))
 (let (($x21603 (bvult strlen_586_64 (_ bv5 64))))
 (let ((?x4746 ((_ extract 23 16) args_18_64)))
 (let (($x18071 (= (_ bv117 8) ?x4746)))
 (let (($x21594 (or $x18071 $x21603)))
 (let (($x20855 (bvult strlen_586_64 (_ bv4 64))))
 (let ((?x4989 ((_ extract 31 24) args_18_64)))
 (let (($x15311 (= (_ bv112 8) ?x4989)))
 (let (($x21002 (or $x15311 $x20855)))
 (let (($x20737 (bvult strlen_586_64 (_ bv3 64))))
 (let ((?x5036 ((_ extract 39 32) args_18_64)))
 (let (($x15200 (= (_ bv103 8) ?x5036)))
 (let (($x20901 (or $x15200 $x20737)))
 (let (($x15294 (bvult strlen_586_64 (_ bv2 64))))
 (let ((?x4953 ((_ extract 47 40) args_18_64)))
 (let (($x26236 (= (_ bv111 8) ?x4953)))
 (let (($x18672 (or $x26236 $x15294)))
 (let (($x14342 (bvult strlen_586_64 (_ bv1 64))))
 (let ((?x4667 ((_ extract 55 48) args_18_64)))
 (let (($x18966 (= (_ bv110 8) ?x4667)))
 (let (($x11300 (or $x18966 $x14342)))
 (let (($x13511 (bvult strlen_586_64 (_ bv0 64))))
 (let ((?x4559 ((_ extract 63 56) args_18_64)))
 (let (($x4861 (= (_ bv45 8) ?x4559)))
 (let (($x4786 (or $x4861 $x13511)))
 (let (($x18551 (= (_ bv6 64) strlen_586_64)))
 (let (($x21879 (and $x18551 $x4786 $x11300 $x18672 $x20901 $x21002 $x21594)))
 (let (($x21984 (not $x21879)))
 (let (($x22137 (and $x21984 $x21918)))
 (let (($x21850 (= (_ bv0 32) strncmp_ret_587_32)))
 (let (($x21760 (and $x18551 $x4786 $x11300 $x18672 $x20901 $x21002 $x21594 $x21850)))
 (or $x21760 $x22137)))))))))))))))))))))))))))))))))
(assert
 (and (distinct (_ bv0 32) strncmp_ret_587_32) true))
(maximize strncmp_ret_489_32)
(maximize strncmp_ret_251_32)
(minimize strlen_338_64)
(maximize args_12_32)
(minimize strlen_87_64)
(maximize strncmp_ret_339_32)
(maximize strncmp_ret_94_32)
(minimize strlen_166_64)
(maximize strlen_428_64)
(maximize args_7_16)
(maximize strncmp_ret_587_32)
(maximize num_bytes_101_64)
(maximize strncmp_ret_79_32)
(minimize strncmp_ret_587_32)
(maximize strncmp_ret_459_32)
(maximize args_17_64)
(minimize strncmp_ret_203_32)
(minimize args_14_32)
(maximize strlen_78_64)
(minimize strncmp_ret_339_32)
(minimize args_5_16)
(minimize strncmp_ret_91_32)
(minimize strncmp_ret_85_32)
(minimize args_1_8)
(minimize strlen_90_64)
(maximize strncmp_ret_167_32)
(maximize strlen_90_64)
(minimize strncmp_ret_227_32)
(minimize args_2_8)
(minimize args_16_64)
(minimize strncmp_ret_155_32)
(maximize strncmp_ret_91_32)
(maximize strncmp_ret_429_32)
(maximize args_6_16)
(minimize strncmp_ret_251_32)
(maximize strncmp_ret_309_32)
(minimize num_bytes_101_64)
(minimize args_8_16)
(maximize strlen_368_64)
(maximize strncmp_ret_203_32)
(minimize strlen_428_64)
(maximize num_bytes_102_64)
(minimize strlen_398_64)
(minimize strncmp_ret_489_32)
(minimize args_12_32)
(maximize strlen_84_64)
(minimize num_bytes_102_64)
(minimize args_10_32)
(maximize strlen_93_64)
(minimize strlen_368_64)
(maximize strlen_166_64)
(maximize args_18_64)
(minimize args_11_32)
(minimize strncmp_ret_369_32)
(minimize args_13_32)
(minimize strncmp_ret_459_32)
(maximize strlen_202_64)
(maximize num_bytes_103_64)
(maximize strlen_87_64)
(minimize strlen_84_64)
(minimize strncmp_ret_88_32)
(maximize args_9_16)
(minimize strncmp_ret_167_32)
(minimize args_15_64)
(minimize strncmp_ret_79_32)
(minimize strlen_93_64)
(maximize args_10_32)
(maximize args_16_64)
(minimize strncmp_ret_399_32)
(maximize args_5_16)
(maximize args_13_32)
(minimize strlen_488_64)
(minimize strlen_278_64)
(maximize args_3_8)
(minimize strlen_154_64)
(maximize strncmp_ret_369_32)
(minimize args_7_16)
(minimize strncmp_ret_549_32)
(minimize strlen_548_64)
(minimize strncmp_ret_94_32)
(maximize strlen_308_64)
(minimize strncmp_ret_519_32)
(maximize strlen_548_64)
(maximize strncmp_ret_155_32)
(minimize args_4_8)
(check-sat)
(get-objectives)
